webassembly/ejemplos_dzn/folder13_json_15.dzn
TERM = { '.', 's(5)', 's(2)', 's(4)', 'in_1', 'local_0', 'local_1', 'in_6', 'in_2', 'in_4', 'in_3', 's(6)', 's(1)', 's(0)', 'in_5', 's(3)', 'in_0'};
null = '.';
s = 13;
n = 12;
ndeps = 7;
max_registers_sz = 5;
NR = 2;
registers = [|'local_0', 'in_3', |'local_1', 'in_5'|];
dependencies = [|'i32.load16_s_0', 'i32.store16_4', |'i32.store16_4', 'i32.load8_s_6', |'call[function_index(0)]_7', 'call[function_index(1)]_8', |'call[function_index(1)]_8', 'i32.load_11', |'i32.load8_u_2', 'i32.store16_4', |'i32.load8_u_3', 'i32.store16_4', |'i32.load8_s_6', 'call[function_index(0)]_7'|];
GET_ENUM = { GET1, GET2, GET3, GET4, GET5, GET6, GET7};
SET_ENUM = { SET1, SET2, SET3, SET4, SET5, SET6, SET7};
TEE_ENUM = { TEE1, TEE2, TEE3, TEE4, TEE5, TEE6, TEE7};
N = 8;
OP = { 'call[function_index(0)]_7', 'call[function_index(1)]_8', 'i32.load16_s_0', 'i32.load8_u_2', 'i32.load8_u_3', 'i32.store16_4', 'i32.load8_s_6', 'i32.load_11' };
in_ops = [1, 2, 1, 1, 1, 2, 1, 1 ];
out_ops = [2, 0, 1, 1, 1, 0, 1, 1 ];
in1 = ['s(3)', 's(5)', 'in_0', 'in_1', 's(1)', 's(2)', 'in_4', 'in_6' ];
in2 = ['.', 's(4)', '.', '.', '.', 'in_2', '.', '.' ];
in3 = ['.', '.', '.', '.', '.', '.', '.', '.' ];
out1 = ['s(5)', '.', 's(0)', 's(1)', 's(2)', '.', 's(3)', 's(6)' ];
out2 = ['s(4)', '.', '.', '.', '.', '.', '.', '.' ];
out3 = ['.', '.', '.', '.', '.', '.', '.', '.' ];
comm = [false, false, false, false, false, false, false, false ];
gas = [1, 1, 1, 1, 1, 1, 1, 1 ];
sz = [1, 1, 1, 1, 1, 1, 1, 1 ];
stor = [true, true, false, false, false, true, false, false ];
lb = [ 1, 1, 1, 1, 1, 1, 1, 1 ];
ub = [ 13, 13, 13, 13, 13, 13, 13, 13 ];
startstack = [ 'in_0', 'in_1', 'in_2', 'in_3', 'in_4', 'in_5', 'in_6', null, null, null, null, null ];
endstack = [ 'in_3', 's(6)', null, null, null, null, null, null, null, null, null, null ];
