webassembly/ejemplos_results/folder13_json_15.txt
=====UNSATISFIABLE=====
% time elapsed: 0.68 s
